
Gurobi 10.0.0 (win64) logging started Sat Nov 19 16:59:11 2022

Set parameter LogFile to value "D:\Project\MATH3205\MATH3205-Project-VRT-with-Drones\MIP\MIPTestLog\MIP-P-n19-k2.txt"
Set parameter TimeLimit to value 3600
Gurobi Optimizer version 10.0.0 build v10.0.0rc2 (win64)

CPU model: 11th Gen Intel(R) Core(TM) i5-1135G7 @ 2.40GHz, instruction set [SSE2|AVX|AVX2|AVX512]
Thread count: 4 physical cores, 8 logical processors, using up to 8 threads

Optimize a model with 440 rows, 1066 columns and 5007 nonzeros
Model fingerprint: 0x351027f8
Variable types: 40 continuous, 1026 integer (1026 binary)
Coefficient statistics:
  Matrix range     [1e+00, 3e+02]
  Objective range  [1e+00, 6e+01]
  Bounds range     [1e+00, 1e+00]
  RHS range        [1e+00, 3e+02]
Presolve removed 20 rows and 39 columns
Presolve time: 0.01s
Presolved: 420 rows, 1027 columns, 4880 nonzeros
Variable types: 18 continuous, 1009 integer (990 binary)

Root relaxation: objective 9.923732e+01, 340 iterations, 0.00 seconds (0.00 work units)

    Nodes    |    Current Node    |     Objective Bounds      |     Work
 Expl Unexpl |  Obj  Depth IntInf | Incumbent    BestBd   Gap | It/Node Time

     0     0   99.23732    0   69          -   99.23732      -     -    0s
H    0     0                     437.9400000   99.23732  77.3%     -    0s
H    0     0                     430.5600000   99.23732  77.0%     -    0s
H    0     0                     422.2000000  131.07803  69.0%     -    0s
H    0     0                     337.5500000  131.07803  61.2%     -    0s
     0     0  131.07803    0   73  337.55000  131.07803  61.2%     -    0s
H    0     0                     320.3800000  131.07803  59.1%     -    0s
H    0     0                     298.9700000  131.07803  56.2%     -    0s
     0     0  131.96483    0   80  298.97000  131.96483  55.9%     -    0s
     0     0  141.58671    0   94  298.97000  141.58671  52.6%     -    0s
H    0     0                     283.4100000  141.58671  50.0%     -    0s
     0     0  143.53408    0   83  283.41000  143.53408  49.4%     -    0s
     0     0  143.71813    0   90  283.41000  143.71813  49.3%     -    0s
     0     0  143.83836    0   99  283.41000  143.83836  49.2%     -    0s
     0     0  143.87275    0  100  283.41000  143.87275  49.2%     -    0s
     0     0  143.93899    0  100  283.41000  143.93899  49.2%     -    0s
     0     0  143.93942    0  101  283.41000  143.93942  49.2%     -    0s
     0     0  153.62427    0   89  283.41000  153.62427  45.8%     -    0s
H    0     0                     280.5600000  153.62427  45.2%     -    0s
     0     0  155.96723    0   96  280.56000  155.96723  44.4%     -    0s
     0     0  157.31708    0  109  280.56000  157.31708  43.9%     -    0s
     0     0  157.53174    0  102  280.56000  157.53174  43.9%     -    0s
     0     0  157.53174    0  104  280.56000  157.53174  43.9%     -    0s
     0     0  158.50996    0   95  280.56000  158.50996  43.5%     -    0s
H    0     0                     275.3000000  158.50996  42.4%     -    0s
     0     0  158.73726    0  110  275.30000  158.73726  42.3%     -    0s
     0     0  158.79411    0  119  275.30000  158.79411  42.3%     -    0s
     0     0  158.80917    0  119  275.30000  158.80917  42.3%     -    0s
     0     0  159.09794    0  111  275.30000  159.09794  42.2%     -    0s
H    0     0                     271.9500000  159.09794  41.5%     -    0s
     0     0  159.25310    0  111  271.95000  159.25310  41.4%     -    0s
     0     0  159.26033    0  114  271.95000  159.26033  41.4%     -    0s
     0     0  159.88544    0  139  271.95000  159.88544  41.2%     -    0s
     0     0  159.90231    0  141  271.95000  159.90231  41.2%     -    0s
     0     0  160.06199    0  115  271.95000  160.06199  41.1%     -    0s
     0     0  160.14174    0  134  271.95000  160.14174  41.1%     -    0s
     0     0  160.15011    0  143  271.95000  160.15011  41.1%     -    0s
     0     0  160.27175    0  143  271.95000  160.27175  41.1%     -    0s
     0     0  160.27175    0  143  271.95000  160.27175  41.1%     -    0s
     0     2  160.59452    0  142  271.95000  160.59452  40.9%     -    0s
H   31    36                     235.3900000  160.59452  31.8%  28.1    0s
H  103   120                     224.3100000  160.59452  28.4%  19.7    1s
H 1035   872                     224.2700000  162.45377  27.6%  14.7    1s
H 1035   828                     211.7400000  162.45377  23.3%  14.7    1s
H 1035   787                     208.3800000  162.45377  22.0%  14.7    1s
H 1046   754                     208.3400000  162.45377  22.0%  14.5    1s
H 1062   726                     203.7700000  165.72495  18.7%  14.3    2s
